(set-logic QF_LRA)
(declare-fun x1 () Real)
(declare-fun x2 () Real)
(declare-fun x3 () Real)
(declare-fun x4 () Real)
(declare-fun x5 () Real)
(declare-fun x6 () Real)
(declare-fun x7 () Real)
(declare-fun x8 () Real)
(declare-fun x9 () Real)
(declare-fun x10 () Real)
(declare-fun x11 () Real)
(declare-fun x12 () Real)
(declare-fun x13 () Real)
(declare-fun x14 () Real)
(declare-fun x15 () Real)
(declare-fun x16 () Real)
(declare-fun x17 () Real)
(declare-fun x18 () Real)
(declare-fun x19 () Real)
(declare-fun x20 () Real)

(assert (>= (- 4 ( + ( + x2 (* 3 x1) ) (* -5 x3) )) 0))
(assert (>= (- -1 ( + ( + (* -5 x1) (* 5 x4) ) x3 )) 0))
(assert (>= (- 5 ( + ( + x3 (* -3 x5) ) (* 5 x2) )) 0))
(assert (>= (- -4 ( + ( + (* -5 x6) (* -5 x3) ) (* -5 x4) )) 0))
(assert (>= (- 3 ( + ( + (* -1 x4) (* -2 x7) ) (* -1 x1) )) 0))
(assert (>= (- 1 ( + ( + (* -4 x4) (* -3 x1) ) (* 4 x8) )) 0))
(assert (>= (- 2 ( + ( + x1 x8 ) (* 3 x9) )) 0))
(assert (>= (- 5 ( + ( + (* -3 x5) (* 2 x10) ) x2 )) 0))
(assert (>= (- 3 ( + ( + (* 2 x4) (* -2 x11) ) (* 4 x8) )) 0))
(assert (>= (- 5 ( + ( + (* 4 x4) (* -5 x8) ) (* -1 x12) )) 0))
(assert (>= (- 4 ( + ( + (* 5 x1) (* -1 x13) ) (* -4 x8) )) 0))
(assert (>= (- -2 ( + ( + x9 (* 5 x14) ) x8 )) 0))
(assert (>= (- 1 ( + ( + (* 2 x15) (* -2 x8) ) (* -4 x4) )) 0))
(assert (>= (- 5 ( + ( + (* -3 x9) (* -5 x8) ) (* -4 x16) )) 0))
(assert (>= (- 4 ( + ( + (* 4 x7) (* -4 x4) ) (* -3 x17) )) 0))
(assert (>= (- 0 ( + ( + (* 2 x9) (* -4 x16) ) (* 3 x18) )) 0))
(assert (>= (- 4 ( + ( + (* 3 x19) (* 5 x4) ) (* -5 x1) )) 0))
(assert (>= (- -2 ( + ( + (* 3 x1) (* -5 x9) ) (* 4 x20) )) 0))
(assert (>= (- 0 (* -4 x3)) 0))
(assert (>= (- 3 ( + (* 3 x2) x3 )) 0))
(assert (>= (- -1 ( + (* 2 x9) (* -3 x20) )) 0))
(assert (>= (- 5 ( + (* 2 x17) (* -1 x7) )) 0))
(assert (>= (- -3 ( + (* 4 x15) (* 2 x8) )) 0))
(assert (>= (- 3 ( + (* 5 x8) (* 2 x11) )) 0))
(assert (>= (- -5 ( + (* -2 x3) (* -5 x2) )) 0))
(assert (>= (- 2 ( + ( + (* 5 x8) (* 2 x4) ) (* 5 x12) )) 0))
(assert (>= (- -5 (* -5 x10)) 0))
(assert (>= (- 5 ( + (* 2 x8) (* 3 x9) )) 0))
(assert (>= (- -2 ( + (* 3 x20) (* 3 x1) )) 0))
(assert (>= (- -2 ( + ( + (* -1 x3) (* -3 x5) ) (* 4 x2) )) 0))
(assert (>= (- 2 (* -4 x20)) 0))
(assert (>= (- -4 (* -1 x9)) 0))
(assert (>= (- 2 (* -4 x8)) 0))
(assert (>= (- -4 ( + ( + (* 5 x4) (* 5 x11) ) (* 4 x8) )) 0))
(assert (>= (- 0 x3) 0))
(assert (>= (- 4 (* -1 x8)) 0))
(assert (>= (- -1 x16) 0))
(assert (>= (- -3 ( + ( + (* -4 x6) (* -1 x3) ) (* 3 x4) )) 0))
(assert (>= (- 2 (* -1 x9)) 0))
(assert (>= (- 2 ( + ( + (* 4 x3) (* -3 x4) ) (* 3 x1) )) 0))
(assert (>= (- 1 (* -3 x1)) 0))
(assert (>= (- 3 ( + ( + (* -3 x5) (* 4 x10) ) (* -1 x2) )) 0))
(assert (>= (- -3 ( + ( + (* -5 x4) (* 4 x8) ) (* -2 x1) )) 0))
(assert (>= (- -1 ( + ( + (* -1 x8) (* 5 x1) ) (* -1 x4) )) 0))
(assert (>= (- 4 (* 2 x2)) 0))
(assert (>= (- 1 (* 2 x4)) 0))
(assert (>= (- 2 ( + (* -5 x9) (* -3 x8) )) 0))
(assert (>= (- -5 ( + (* 4 x16) (* -5 x9) )) 0))
(assert (>= (- -2 ( + ( + (* 4 x1) x8 ) (* -2 x13) )) 0))
(assert (>= (- -4 ( + ( + (* 5 x15) (* -3 x8) ) (* 4 x4) )) 0))
(assert (>= (- 2 (* -3 x8)) 0))
(assert (>= (- 4 (* -2 x3)) 0))
(assert (>= (- -4 (* 2 x4)) 0))
(assert (>= (- 1 (* -2 x11)) 0))
(assert (>= (- -5 ( + (* -4 x14) (* -5 x8) )) 0))
(assert (>= (- -4 ( + (* -5 x1) x19 )) 0))
(assert (>= (- -5 (* 2 x4)) 0))
(assert (>= (- -2 ( + ( + (* -5 x2) x5 ) (* 2 x3) )) 0))
(assert (>= (- -3 (* 5 x8)) 0))
(assert (>= (- -3 ( + ( + x8 (* -2 x15) ) (* -3 x4) )) 0))
(assert (>= (- 3 (* 5 x1)) 0))
(assert (>= (- 2 ( + ( + (* 2 x3) (* -2 x2) ) (* 2 x5) )) 0))
(assert (>= (- 2 ( + x17 (* 4 x7) )) 0))
(assert (>= (- -1 ( + (* -5 x4) (* 5 x1) )) 0))
(assert (>= (- -5 ( + ( + (* 4 x2) (* 3 x5) ) (* -5 x3) )) 0))
(assert (>= (- -1 ( + (* 3 x8) (* 2 x9) )) 0))
(assert (>= (- -1 x3) 0))
(assert (>= (- 2 (* 2 x4)) 0))
(assert (>= (- 5 ( + (* -3 x4) (* -4 x1) )) 0))
(assert (>= (- 1 ( + (* -4 x14) (* 4 x8) )) 0))
(assert (>= (- -4 (* -4 x3)) 0))
(assert (>= (- -5 ( + (* -4 x1) (* -5 x19) )) 0))
(assert (>= (- 4 ( + (* -1 x8) (* 5 x1) )) 0))
(assert (>= (- -2 ( + (* 4 x20) (* 2 x9) )) 0))
(assert (>= (- 3 (* 3 x3)) 0))
(assert (>= (- 5 ( + ( + (* -2 x2) (* -4 x3) ) (* -3 x1) )) 0))
(assert (>= (- 2 ( + ( + (* 3 x1) (* -5 x8) ) (* 5 x9) )) 0))
(assert (>= (- 3 (* 3 x1)) 0))
(assert (>= (- 1 ( + ( + x8 (* 5 x16) ) (* 5 x9) )) 0))
(assert (>= (- 2 (* -5 x1)) 0))
(assert (>= (- 2 (* -4 x14)) 0))
(assert (>= (- -2 ( + (* 4 x1) (* -2 x8) )) 0))
(assert (>= (- 3 ( + (* -2 x8) (* 5 x9) )) 0))
(assert (>= (- 3 ( + ( + (* 5 x2) (* -2 x10) ) (* -5 x5) )) 0))
(assert (>= (- 2 ( + (* 5 x13) (* 2 x8) )) 0))
(assert (>= (- 1 ( + ( + (* 2 x4) x15 ) x8 )) 0))
(assert (>= (- 1 (* -2 x4)) 0))
(assert (>= (- 0 ( + (* -3 x14) x8 )) 0))
(assert (>= (- 4 (* 3 x4)) 0))
(assert (>= (- -5 ( + ( + (* 5 x9) (* -2 x20) ) (* 4 x1) )) 0))
(assert (>= (- -1 ( + ( + (* 3 x6) (* -5 x3) ) (* -5 x4) )) 0))
(assert (>= (- -5 (* 2 x8)) 0))
(assert (>= (- 0 ( + x8 (* -1 x14) )) 0))
(assert (>= (- -1 (* -3 x1)) 0))
(assert (>= (- 1 ( + (* -2 x16) (* -2 x18) )) 0))
(assert (>= (- 4 (* 2 x8)) 0))
(assert (>= (- -1 x1) 0))
(assert (>= (- 2 (* -4 x9)) 0))
(assert (>= (- -5 (* 3 x2)) 0))
(assert (>= (- -3 ( + (* -2 x7) (* -1 x4) )) 0))
(check-sat)
(exit)